#
# Data for the one-period version of the SIZES optimization model.
#

param NumSizes := 10 ;

param NumStages := 2 ;

param Capacity := 200000 ;

param Demands := 1 1 2500 2 1 7500 3 1 12500 4 1 10000 5 1 35000 6 1 25000 7 1 15000 8 1 12500 9 1 12500 10 1 5000 
                 1 2 2500 2 2 7500 3 2 12500 4 2 10000 5 2 35000 6 2 25000 7 2 15000 8 2 12500 9 2 12500 10 2 5000 ;

param UnitProductionCosts := 1 0.748 2 0.7584 3 0.7688 4 0.7792 5 0.7896 6 0.8 7 0.8104 8 0.8208 9 0.8312 10 0.8416 ;

param SetupCosts := 1 453 2 453 3 453 4 453 5 453 6 453 7 453 8 453 9 453 10 453;

param UnitReductionCost := 0.008 ;
